<number of tasks>
20

<cycle time>
1000

<order strength>
0,205


<task times>
1 138
2 31
3 218
4 150
5 229
6 139
7 123
8 130
9 78
10 42
11 64
12 230
13 118
14 116
15 214
16 90
17 186
18 52
19 208
20 229

<precedence relations>
1,4
1,5
2,6
2,7
3,8
4,13
4,14
5,11
7,9
8,10
8,12
12,16
13,15
15,19
15,20
16,17
16,18

<end>
